\ Generated by MPModelProtoExporter
\   Name             : 
\   Format           : Free
\   Constraints      : 1
\   Variables        : 10
\     Binary         : 10
\     Integer        : 0
\     Continuous     : 0
Minimize
 Obj: -0.316925 v0 -0.316821 v1 -0.316252 v2 -0.315654 v3 -0.316483 v4 -0.315781 v5 -0.315028 v6 -0.315998 v7 -0.316613 v8 -0.316718 v9 
Subject to
 auto_c_000000000: +0.248508 v0 +0.249012 v1 +0.249263 v2 +0.248309 v3 +0.249867 v4 +0.248905 v5 +0.249102 v6 +0.247534 v7 +0.247776 v8 +0.248841 v9  <= 1
Bounds
 0 <= v0 <= 1
 0 <= v1 <= 1
 0 <= v2 <= 1
 0 <= v3 <= 1
 0 <= v4 <= 1
 0 <= v5 <= 1
 0 <= v6 <= 1
 0 <= v7 <= 1
 0 <= v8 <= 1
 0 <= v9 <= 1
Binaries
 v0
 v1
 v2
 v3
 v4
 v5
 v6
 v7
 v8
 v9
End
